10	5
0	3	3	1	2
1	2	4	9
2	2	8	6
3	3	8	4	6
4	1	7
5	0
6	2	5	10
7	1	11
8	1	11
9	1	11
10	1	11
11	0
0	0	0	0	0	0	0
1	8	4	4	2	0	0
2	3	1	4	1	1	2
3	4	4	2	4	3	3
4	8	2	0	0	4	1
5	4	1	1	3	0	2
6	6	0	0	3	0	4
7	3	1	0	4	4	0
8	1	4	5	1	3	2
9	10	3	4	1	3	2
10	9	0	5	2	0	1
11	0	0	0	0	0	0
9	10	7	6	6
